(set-info :Origin "This instance was generated by: BanditFuzz-- an RL fuzzer for SMT solvers" )
(set-info :Author "Joe Scott, Fed Mora, Vijay Ganesh" )
(set-info :Contact "Joe Scott, joseph.scott@uwaterloo.ca")
(set-logic QF_BV)
(declare-const bool_0 Bool)
(declare-const bool_1 Bool)
(declare-const bool_2 Bool)
(declare-const bool_3 Bool)
(declare-const bool_4 Bool)
(declare-const bv_0 (_ BitVec 32))
(declare-const bv_1 (_ BitVec 32))
(declare-const bv_2 (_ BitVec 32))
(declare-const bv_3 (_ BitVec 32))
(declare-const bv_4 (_ BitVec 32))
(assert (bvuge (bvsmod (bvurem bv_4 #x10cbda20 ) (bvsmod bv_2 #xf4f34861 )) (bvsdiv (bvxor #xe7193c18  #xfbee10be ) (bvsdiv #xcee57588  #x957fd916 ))))
(assert (not (not (bvugt #xc5a0d919  bv_1))))
(assert (bvsle (bvand (bvsdiv bv_4 #x610af5cf ) (bvudiv #x99d7be64  bv_4)) (bvashr (bvxor #x66beb457  #x54479117 ) (bvand #x80b247f8  #x9d20d0cc ))))
(assert (bvsgt (bvor (bvxor bv_4 #xd2a275c4 ) (bvurem #x33a755d1  bv_0)) (bvsdiv (bvurem bv_1 bv_0) (bvsrem bv_1 #xe4439ad9 ))))
(assert (bvsge (bvurem (bvudiv #xef11b9b9  #x518a3b8b ) (bvor #x3fc1741a  bv_2)) (bvnand (bvshl bv_1 #x67e3262a ) (bvsmod #x90432df5  bv_0))))
(check-sat)
(exit)
